g3 0 1 0	# problem degenlpa
 20 14 1 0 14	# vars, constraints, objectives, ranges, eqns
 0 0	# nonlinear constraints, objectives
 0 0	# network constraints: nonlinear, linear
 0 0 0	# nonlinear vars in constraints, objectives, both
 0 0 0 1	# linear network variables; functions; arith, flags
 0 0 0 0 0	# discrete variables: binary, integer, nonlinear (b,c,o)
 78 9	# nonzeros in Jacobian, gradients
 0 0	# max name lengths: constraints, variables
 0 0 0 0 0	# common exprs: b,c,o,c1,o1
b
0 0 1
0 0 1
0 0 1
0 0 1
0 0 1
0 0 1
0 0 1
0 0 1
0 0 1
0 0 1
0 0 1
0 0 1
0 0 1
0 0 1
0 0 1
0 0 1
0 0 1
0 0 1
0 0 1
0 0 1
x20
0 1
1 1
2 1
3 1
4 1
5 1
6 1
7 1
8 1
9 1
10 1
11 1
12 1
13 1
14 1
15 1
16 1
17 1
18 1
19 1
r
4 0.70785
4 0
4 0
4 0
4 0
4 0
4 0
4 0
4 0
4 0
4 0
4 0
4 0
4 0
C0
n0
C1
n0
C2
n0
C3
n0
C4
n0
C5
n0
C6
n0
C7
n0
C8
n0
C9
n0
C10
n0
C11
n0
C12
n0
C13
n0
O0 0
n0
k19
4
9
14
19
22
26
30
33
37
40
44
49
54
58
62
67
69
71
76
J0 10
0 1
1 2
2 2
3 2
4 1
5 2
6 2
7 1
8 2
9 1
J1 5
0 0.326
1 -101
4 200
5 0.06
6 0.02
J2 5
0 0.0066667
2 -1.03
5 200
7 0.06
8 0.02
J3 5
0 0.00066667
3 -1.01
6 200
8 0.06
9 0.02
J4 5
1 0.978
4 -201
10 100
11 0.03
12 0.01
J5 6
1 0.01
2 0.489
5 -101.03
11 100
13 0.03
14 0.01
J6 6
1 0.001
3 0.489
6 -101.03
12 100
14 0.03
15 0.01
J7 6
2 0.001
3 0.01
8 -1.04
14 100
17 0.03
18 0.01
J8 5
2 0.02
7 -1.06
13 100
16 0.03
18 0.01
J9 5
3 0.002
9 -1.02
15 100
18 0.03
19 0.01
J10 4
10 -2.5742e-06
12 0.00252
15 -0.61975
19 1.03
J11 4
10 -0.00257
11 0.25221
13 -6.2
16 1.09
J12 6
10 0.00629
11 -0.20555
12 -4.1106
14 101.04
15 505.1
18 -256.72
J13 6
11 0.00841
12 -0.08406
13 -0.20667
15 20.658
17 1.07
18 -10.5
G0 9
1 0.01
2 33.333
3 100
4 0.01
5 33.343
6 100.01
7 33.333
8 133.33
9 100
